c File: flat50_3_0.col
c
c SOURCE: Joseph Culberson (joe@cs.ualberta.ca)
c DESCRIPTION: Quasi-random coloring problem
c              generated with flatness = 0
c                             probability = 0.139
c                             known coloring = 3
c                             random seed = 1511
c              Creation Date:  Tue Jun  9 12:11:06 1998
c Maximum degree = 8 Minimum degree = 2
c p edge 50 115
c cnf created by edge2cnf
p cnf 150 545
-1 -2 0
-1 -3 0
-2 -3 0
1 2 3 0
-4 -5 0
-4 -6 0
-5 -6 0
4 5 6 0
-7 -8 0
-7 -9 0
-8 -9 0
7 8 9 0
-10 -11 0
-10 -12 0
-11 -12 0
10 11 12 0
-13 -14 0
-13 -15 0
-14 -15 0
13 14 15 0
-16 -17 0
-16 -18 0
-17 -18 0
16 17 18 0
-19 -20 0
-19 -21 0
-20 -21 0
19 20 21 0
-22 -23 0
-22 -24 0
-23 -24 0
22 23 24 0
-25 -26 0
-25 -27 0
-26 -27 0
25 26 27 0
-28 -29 0
-28 -30 0
-29 -30 0
28 29 30 0
-31 -32 0
-31 -33 0
-32 -33 0
31 32 33 0
-34 -35 0
-34 -36 0
-35 -36 0
34 35 36 0
-37 -38 0
-37 -39 0
-38 -39 0
37 38 39 0
-40 -41 0
-40 -42 0
-41 -42 0
40 41 42 0
-43 -44 0
-43 -45 0
-44 -45 0
43 44 45 0
-46 -47 0
-46 -48 0
-47 -48 0
46 47 48 0
-49 -50 0
-49 -51 0
-50 -51 0
49 50 51 0
-52 -53 0
-52 -54 0
-53 -54 0
52 53 54 0
-55 -56 0
-55 -57 0
-56 -57 0
55 56 57 0
-58 -59 0
-58 -60 0
-59 -60 0
58 59 60 0
-61 -62 0
-61 -63 0
-62 -63 0
61 62 63 0
-64 -65 0
-64 -66 0
-65 -66 0
64 65 66 0
-67 -68 0
-67 -69 0
-68 -69 0
67 68 69 0
-70 -71 0
-70 -72 0
-71 -72 0
70 71 72 0
-73 -74 0
-73 -75 0
-74 -75 0
73 74 75 0
-76 -77 0
-76 -78 0
-77 -78 0
76 77 78 0
-79 -80 0
-79 -81 0
-80 -81 0
79 80 81 0
-82 -83 0
-82 -84 0
-83 -84 0
82 83 84 0
-85 -86 0
-85 -87 0
-86 -87 0
85 86 87 0
-88 -89 0
-88 -90 0
-89 -90 0
88 89 90 0
-91 -92 0
-91 -93 0
-92 -93 0
91 92 93 0
-94 -95 0
-94 -96 0
-95 -96 0
94 95 96 0
-97 -98 0
-97 -99 0
-98 -99 0
97 98 99 0
-100 -101 0
-100 -102 0
-101 -102 0
100 101 102 0
-103 -104 0
-103 -105 0
-104 -105 0
103 104 105 0
-106 -107 0
-106 -108 0
-107 -108 0
106 107 108 0
-109 -110 0
-109 -111 0
-110 -111 0
109 110 111 0
-112 -113 0
-112 -114 0
-113 -114 0
112 113 114 0
-115 -116 0
-115 -117 0
-116 -117 0
115 116 117 0
-118 -119 0
-118 -120 0
-119 -120 0
118 119 120 0
-121 -122 0
-121 -123 0
-122 -123 0
121 122 123 0
-124 -125 0
-124 -126 0
-125 -126 0
124 125 126 0
-127 -128 0
-127 -129 0
-128 -129 0
127 128 129 0
-130 -131 0
-130 -132 0
-131 -132 0
130 131 132 0
-133 -134 0
-133 -135 0
-134 -135 0
133 134 135 0
-136 -137 0
-136 -138 0
-137 -138 0
136 137 138 0
-139 -140 0
-139 -141 0
-140 -141 0
139 140 141 0
-142 -143 0
-142 -144 0
-143 -144 0
142 143 144 0
-145 -146 0
-145 -147 0
-146 -147 0
145 146 147 0
-148 -149 0
-148 -150 0
-149 -150 0
148 149 150 0
-52 -1 0
-53 -2 0
-54 -3 0
-55 -1 0
-56 -2 0
-57 -3 0
-61 -1 0
-62 -2 0
-63 -3 0
-94 -1 0
-95 -2 0
-96 -3 0
-109 -1 0
-110 -2 0
-111 -3 0
-76 -4 0
-77 -5 0
-78 -6 0
-109 -4 0
-110 -5 0
-111 -6 0
-55 -7 0
-56 -8 0
-57 -9 0
-58 -7 0
-59 -8 0
-60 -9 0
-67 -7 0
-68 -8 0
-69 -9 0
-82 -7 0
-83 -8 0
-84 -9 0
-127 -7 0
-128 -8 0
-129 -9 0
-130 -7 0
-131 -8 0
-132 -9 0
-70 -10 0
-71 -11 0
-72 -12 0
-88 -10 0
-89 -11 0
-90 -12 0
-100 -10 0
-101 -11 0
-102 -12 0
-136 -10 0
-137 -11 0
-138 -12 0
-58 -13 0
-59 -14 0
-60 -15 0
-127 -13 0
-128 -14 0
-129 -15 0
-142 -13 0
-143 -14 0
-144 -15 0
-73 -16 0
-74 -17 0
-75 -18 0
-79 -16 0
-80 -17 0
-81 -18 0
-106 -16 0
-107 -17 0
-108 -18 0
-67 -19 0
-68 -20 0
-69 -21 0
-73 -19 0
-74 -20 0
-75 -21 0
-85 -19 0
-86 -20 0
-87 -21 0
-106 -19 0
-107 -20 0
-108 -21 0
-121 -19 0
-122 -20 0
-123 -21 0
-127 -19 0
-128 -20 0
-129 -21 0
-94 -22 0
-95 -23 0
-96 -24 0
-130 -22 0
-131 -23 0
-132 -24 0
-82 -25 0
-83 -26 0
-84 -27 0
-97 -25 0
-98 -26 0
-99 -27 0
-142 -25 0
-143 -26 0
-144 -27 0
-145 -25 0
-146 -26 0
-147 -27 0
-76 -28 0
-77 -29 0
-78 -30 0
-79 -28 0
-80 -29 0
-81 -30 0
-97 -28 0
-98 -29 0
-99 -30 0
-109 -28 0
-110 -29 0
-111 -30 0
-127 -28 0
-128 -29 0
-129 -30 0
-133 -28 0
-134 -29 0
-135 -30 0
-67 -31 0
-68 -32 0
-69 -33 0
-91 -31 0
-92 -32 0
-93 -33 0
-97 -31 0
-98 -32 0
-99 -33 0
-112 -31 0
-113 -32 0
-114 -33 0
-115 -31 0
-116 -32 0
-117 -33 0
-124 -31 0
-125 -32 0
-126 -33 0
-145 -31 0
-146 -32 0
-147 -33 0
-79 -34 0
-80 -35 0
-81 -36 0
-106 -34 0
-107 -35 0
-108 -36 0
-118 -34 0
-119 -35 0
-120 -36 0
-121 -34 0
-122 -35 0
-123 -36 0
-64 -37 0
-65 -38 0
-66 -39 0
-70 -37 0
-71 -38 0
-72 -39 0
-82 -37 0
-83 -38 0
-84 -39 0
-130 -37 0
-131 -38 0
-132 -39 0
-136 -37 0
-137 -38 0
-138 -39 0
-148 -37 0
-149 -38 0
-150 -39 0
-61 -40 0
-62 -41 0
-63 -42 0
-82 -40 0
-83 -41 0
-84 -42 0
-91 -40 0
-92 -41 0
-93 -42 0
-121 -40 0
-122 -41 0
-123 -42 0
-130 -40 0
-131 -41 0
-132 -42 0
-142 -40 0
-143 -41 0
-144 -42 0
-145 -40 0
-146 -41 0
-147 -42 0
-124 -43 0
-125 -44 0
-126 -45 0
-133 -43 0
-134 -44 0
-135 -45 0
-136 -43 0
-137 -44 0
-138 -45 0
-52 -46 0
-53 -47 0
-54 -48 0
-58 -46 0
-59 -47 0
-60 -48 0
-70 -46 0
-71 -47 0
-72 -48 0
-100 -46 0
-101 -47 0
-102 -48 0
-121 -46 0
-122 -47 0
-123 -48 0
-61 -49 0
-62 -50 0
-63 -51 0
-76 -49 0
-77 -50 0
-78 -51 0
-103 -49 0
-104 -50 0
-105 -51 0
-139 -49 0
-140 -50 0
-141 -51 0
-121 -52 0
-122 -53 0
-123 -54 0
-142 -52 0
-143 -53 0
-144 -54 0
-127 -55 0
-128 -56 0
-129 -57 0
-136 -58 0
-137 -59 0
-138 -60 0
-109 -61 0
-110 -62 0
-111 -63 0
-139 -61 0
-140 -62 0
-141 -63 0
-103 -64 0
-104 -65 0
-105 -66 0
-118 -64 0
-119 -65 0
-120 -66 0
-127 -64 0
-128 -65 0
-129 -66 0
-118 -67 0
-119 -68 0
-120 -69 0
-130 -67 0
-131 -68 0
-132 -69 0
-145 -67 0
-146 -68 0
-147 -69 0
-148 -67 0
-149 -68 0
-150 -69 0
-109 -70 0
-110 -71 0
-111 -72 0
-124 -70 0
-125 -71 0
-126 -72 0
-133 -70 0
-134 -71 0
-135 -72 0
-115 -73 0
-116 -74 0
-117 -75 0
-118 -73 0
-119 -74 0
-120 -75 0
-124 -73 0
-125 -74 0
-126 -75 0
-148 -73 0
-149 -74 0
-150 -75 0
-112 -76 0
-113 -77 0
-114 -78 0
-115 -76 0
-116 -77 0
-117 -78 0
-130 -76 0
-131 -77 0
-132 -78 0
-112 -79 0
-113 -80 0
-114 -81 0
-112 -82 0
-113 -83 0
-114 -84 0
-124 -82 0
-125 -83 0
-126 -84 0
-142 -82 0
-143 -83 0
-144 -84 0
-145 -82 0
-146 -83 0
-147 -84 0
-139 -85 0
-140 -86 0
-141 -87 0
-106 -88 0
-107 -89 0
-108 -90 0
-115 -88 0
-116 -89 0
-117 -90 0
-118 -91 0
-119 -92 0
-120 -93 0
-121 -91 0
-122 -92 0
-123 -93 0
-127 -91 0
-128 -92 0
-129 -93 0
-106 -94 0
-107 -95 0
-108 -96 0
-139 -97 0
-140 -98 0
-141 -99 0
-103 -100 0
-104 -101 0
-105 -102 0
-139 -100 0
-140 -101 0
-141 -102 0
